NAME: random-44-14833
TYPE: TSP
COMMENT: size=44 seed=14833
DIMENSION: 90
EDGE_WEIGHT_TYPE: EUC_2D
NODE_COORD_SECTION
+0 231 120
-0 231 120
+1 96 767
-1 193 731
+2 687 589
-2 384 957
+3 561 722
-3 747 520
+4 506 499
-4 231 619
+5 175 435
-5 405 534
+6 983 884
-6 959 321
+7 738 255
-7 7 723
+8 372 923
-8 784 693
+9 706 424
-9 407 800
+10 903 398
-10 176 310
+11 44 119
-11 181 869
+12 487 350
-12 90 807
+13 442 533
-13 228 727
+14 540 110
-14 48 193
+15 980 277
-15 591 388
+16 35 980
-16 132 649
+17 398 18
-17 612 214
+18 432 391
-18 66 879
+19 300 414
-19 160 949
+20 282 529
-20 912 816
+21 595 749
-21 225 812
+22 555 774
-22 278 138
+23 383 95
-23 167 922
+24 964 867
-24 736 785
+25 390 21
-25 323 409
+26 961 301
-26 847 671
+27 133 761
-27 307 370
+28 363 611
-28 559 851
+29 543 82
-29 497 898
+30 777 397
-30 334 849
+31 529 728
-31 712 464
+32 97 976
-32 754 908
+33 143 134
-33 777 996
+34 371 460
-34 220 859
+35 279 586
-35 651 22
+36 633 309
-36 479 394
+37 922 836
-37 22 649
+38 892 313
-38 637 308
+39 24 60
-39 525 541
+40 87 796
-40 451 352
+41 514 324
-41 338 470
+42 940 180
-42 843 210
+43 930 719
-43 114 377
+44 959 859
-44 407 660
PRECEDENCE_SECTION
+0 -0
+1 -1
+2 -2
+3 -3
+4 -4
+5 -5
+6 -6
+7 -7
+8 -8
+9 -9
+10 -10
+11 -11
+12 -12
+13 -13
+14 -14
+15 -15
+16 -16
+17 -17
+18 -18
+19 -19
+20 -20
+21 -21
+22 -22
+23 -23
+24 -24
+25 -25
+26 -26
+27 -27
+28 -28
+29 -29
+30 -30
+31 -31
+32 -32
+33 -33
+34 -34
+35 -35
+36 -36
+37 -37
+38 -38
+39 -39
+40 -40
+41 -41
+42 -42
+43 -43
+44 -44
EOF
